capacidades = [1000, 300, 500];
costos = [22, 10, 30];

n_clientes = 2;
n_dias = 5;

d = [|900, 300, 100, 230, 500|
      200, 700, 350, 420, 0|];

% capacidades = [1000, 800, 1000];
% costos = [100, 50, 150];

% n_dias = 5;
% n_clientes = 3;

% d=[|500, 200, 600, 600, 700|
%     900, 200, 800, 600, 900|
%     800, 200, 400, 500, 700|];

% limit_dias = 2;
% porcentaje = 0.8;